11 67
16 94
52 95
56 13
23 38
73 49
27 31
45 8
42 29
83 73
54 81
12 26
84 49
81 64
39 82
29 70
71 86
33 52
53 31
67 47
94 36
45 52
19 20
2 17
3 48
86 61
86 67
77 15
34 39
39 49
43 3
47 57
87 18
17 41
94 91
39 44
30 26
47 56
90 12
28 81
21 16
88 51
89 40
48 75
56 98
16 12
11 63
46 70
56 69
5 38
